# Solution for model r5_t27_m6_4 Batch Number: 4
# Finished Task: 27 / 27
# Makespan: 739.0, Total Distance: 592.0, Total Time: 1.4190
# R O S F Batch
0 0 29 0.0 0.0 -1
1 1 9 0.0 0.0 -1
2 2 20 0.0 0.0 -1
3 3 17 0.0 0.0 -1
4 4 19 0.0 0.0 -1
5 3 21 533.0 553.0 2
6 1 13 368.0 405.0 0
7 1 26 538.0 569.0 1
8 1 7 496.0 524.0 0
9 1 10 193.0 230.0 0
10 1 6 230.0 258.0 0
11 4 15 515.0 552.0 0
12 0 24 479.0 518.0 0
13 1 8 470.0 496.0 0
14 2 18 586.0 609.0 2
15 4 -1 594.0 632.0 3
16 0 12 445.0 479.0 0
17 3 23 188.0 224.0 0
18 2 31 650.0 675.0 3
19 4 11 469.0 499.0 0
20 2 14 514.0 553.0 0
21 3 30 574.0 594.0 3
22 0 28 589.0 617.0 2
23 3 27 345.0 368.0 0
24 0 22 518.0 556.0 2
25 3 5 498.0 518.0 2
26 1 -1 592.0 617.0 2
27 3 25 379.0 409.0 0
28 0 -1 663.0 691.0 3
29 0 16 377.0 405.0 0
30 3 -1 613.0 635.0 3
31 2 -1 713.0 739.0 3
